Route #1: 86 85 81 78 77
Route #2: 34 28 26 23 25
Route #3: 32 33 35 31 0 59 56 58 60 44 0 17 15 13 9
Route #4: 1 99 100 97 92 94 0 18 19 16 14 12 0 52 50 51 42 41 43 48
Route #5: 74 72 61 64 66 69 0 6 37 38 39 36 0 76 71 70 73 79 80 96
Route #6: 67 62 63 0 89 91 90 11 10 8 21
Route #7: 20 24 29 30 27 22 0 7 98 95 3 4 0 57 40 46 45 47
Route #8: 5 2 75 93 0 68 65 55 54 53 49 0 88 84 82 83 87
Cost: 14905
Optimal: True
